c " random instance " 
p edges 200 2057
e 1 38
e 1 41
e 1 43
e 1 52
e 1 61
e 1 62
e 1 97
e 1 101
e 1 110
e 1 117
e 1 132
e 1 153
e 1 157
e 1 159
e 1 184
e 1 186
e 1 191
e 2 7
e 2 16
e 2 56
e 2 57
e 2 60
e 2 62
e 2 72
e 2 79
e 2 81
e 2 95
e 2 97
e 2 110
e 2 124
e 2 127
e 2 133
e 2 141
e 2 147
e 2 158
e 2 163
e 2 165
e 2 180
e 2 184
e 3 13
e 3 19
e 3 54
e 3 62
e 3 69
e 3 74
e 3 88
e 3 98
e 3 102
e 3 103
e 3 107
e 3 125
e 3 126
e 3 133
e 3 134
e 3 149
e 3 151
e 3 160
e 3 170
e 3 184
e 3 187
e 4 35
e 4 51
e 4 78
e 4 95
e 4 100
e 4 125
e 4 136
e 4 139
e 4 150
e 4 159
e 4 191
e 4 194
e 4 196
e 5 12
e 5 13
e 5 25
e 5 35
e 5 39
e 5 46
e 5 70
e 5 122
e 5 123
e 5 124
e 5 128
e 5 137
e 5 152
e 5 165
e 5 176
e 5 181
e 5 190
e 5 193
e 5 198
e 5 200
e 6 18
e 6 25
e 6 30
e 6 41
e 6 58
e 6 69
e 6 72
e 6 111
e 6 115
e 6 117
e 6 120
e 6 152
e 6 158
e 7 28
e 7 40
e 7 80
e 7 89
e 7 91
e 7 96
e 7 97
e 7 100
e 7 110
e 7 113
e 7 117
e 7 127
e 7 129
e 7 131
e 7 149
e 7 157
e 7 159
e 7 181
e 7 186
e 7 190
e 8 20
e 8 30
e 8 34
e 8 65
e 8 70
e 8 88
e 8 89
e 8 92
e 8 101
e 8 121
e 8 127
e 8 131
e 8 143
e 8 147
e 8 181
e 8 182
e 8 198
e 9 20
e 9 26
e 9 28
e 9 33
e 9 42
e 9 44
e 9 55
e 9 78
e 9 83
e 9 97
e 9 111
e 9 116
e 9 120
e 9 131
e 9 140
e 9 143
e 9 153
e 9 156
e 9 159
e 9 168
e 9 173
e 9 192
e 10 14
e 10 16
e 10 36
e 10 41
e 10 44
e 10 53
e 10 59
e 10 75
e 10 82
e 10 83
e 10 86
e 10 96
e 10 100
e 10 108
e 10 109
e 10 115
e 10 116
e 10 123
e 10 131
e 10 140
e 10 150
e 10 167
e 10 172
e 10 176
e 10 191
e 11 14
e 11 20
e 11 28
e 11 35
e 11 44
e 11 53
e 11 74
e 11 105
e 11 107
e 11 115
e 11 118
e 11 127
e 11 129
e 11 130
e 11 148
e 11 156
e 11 169
e 11 186
e 11 193
e 12 14
e 12 20
e 12 23
e 12 25
e 12 43
e 12 55
e 12 56
e 12 60
e 12 65
e 12 74
e 12 98
e 12 114
e 12 128
e 12 138
e 12 153
e 12 163
e 12 166
e 12 172
e 12 181
e 12 182
e 12 193
e 12 194
e 13 19
e 13 23
e 13 42
e 13 43
e 13 47
e 13 52
e 13 53
e 13 54
e 13 68
e 13 69
e 13 75
e 13 78
e 13 80
e 13 98
e 13 104
e 13 134
e 13 141
e 13 144
e 13 155
e 13 191
e 14 19
e 14 24
e 14 25
e 14 35
e 14 36
e 14 45
e 14 61
e 14 70
e 14 73
e 14 84
e 14 91
e 14 105
e 14 108
e 14 113
e 14 115
e 14 139
e 14 162
e 15 21
e 15 30
e 15 43
e 15 48
e 15 53
e 15 56
e 15 65
e 15 78
e 15 83
e 15 87
e 15 89
e 15 94
e 15 103
e 15 106
e 15 133
e 15 157
e 15 174
e 15 178
e 15 183
e 15 191
e 16 46
e 16 53
e 16 54
e 16 116
e 16 122
e 16 143
e 16 146
e 16 151
e 16 158
e 16 159
e 16 167
e 16 175
e 16 179
e 16 183
e 16 197
e 16 200
e 17 18
e 17 24
e 17 37
e 17 41
e 17 52
e 17 61
e 17 65
e 17 85
e 17 92
e 17 99
e 17 120
e 17 121
e 17 126
e 17 145
e 17 152
e 17 170
e 17 171
e 17 180
e 17 191
e 17 192
e 18 22
e 18 29
e 18 38
e 18 60
e 18 74
e 18 82
e 18 83
e 18 93
e 18 109
e 18 112
e 18 121
e 18 122
e 18 130
e 18 140
e 18 142
e 18 150
e 18 155
e 18 157
e 19 21
e 19 24
e 19 38
e 19 39
e 19 60
e 19 69
e 19 73
e 19 79
e 19 80
e 19 107
e 19 109
e 19 122
e 19 126
e 19 134
e 19 141
e 19 149
e 19 175
e 19 183
e 19 196
e 20 21
e 20 26
e 20 32
e 20 46
e 20 62
e 20 64
e 20 70
e 20 74
e 20 92
e 20 98
e 20 101
e 20 110
e 20 111
e 20 118
e 20 121
e 20 124
e 20 126
e 20 159
e 20 195
e 21 29
e 21 40
e 21 42
e 21 61
e 21 72
e 21 74
e 21 85
e 21 86
e 21 105
e 21 116
e 21 124
e 21 138
e 21 150
e 21 154
e 21 157
e 21 176
e 21 179
e 21 182
e 21 190
e 21 191
e 21 194
e 21 196
e 22 44
e 22 54
e 22 55
e 22 75
e 22 83
e 22 84
e 22 91
e 22 93
e 22 99
e 22 107
e 22 120
e 22 128
e 22 130
e 22 137
e 22 141
e 22 148
e 22 162
e 22 169
e 22 177
e 22 187
e 22 188
e 22 199
e 22 200
e 23 36
e 23 38
e 23 63
e 23 73
e 23 77
e 23 88
e 23 89
e 23 116
e 23 125
e 23 129
e 23 130
e 23 131
e 23 135
e 23 160
e 23 167
e 23 172
e 23 174
e 23 181
e 23 184
e 23 186
e 23 192
e 24 27
e 24 33
e 24 37
e 24 43
e 24 52
e 24 56
e 24 58
e 24 70
e 24 72
e 24 80
e 24 81
e 24 101
e 24 102
e 24 116
e 24 119
e 24 123
e 24 130
e 24 139
e 24 151
e 24 184
e 24 188
e 24 189
e 24 197
e 25 26
e 25 39
e 25 53
e 25 61
e 25 64
e 25 87
e 25 95
e 25 100
e 25 116
e 25 146
e 25 176
e 25 184
e 25 198
e 26 29
e 26 35
e 26 68
e 26 71
e 26 80
e 26 99
e 26 107
e 26 108
e 26 114
e 26 132
e 26 138
e 26 158
e 26 181
e 26 189
e 26 196
e 27 28
e 27 41
e 27 42
e 27 56
e 27 58
e 27 67
e 27 68
e 27 72
e 27 81
e 27 91
e 27 93
e 27 106
e 27 109
e 27 110
e 27 126
e 27 136
e 27 140
e 27 143
e 27 146
e 27 152
e 27 162
e 27 174
e 27 180
e 27 181
e 27 189
e 27 190
e 27 191
e 27 194
e 28 30
e 28 31
e 28 52
e 28 82
e 28 86
e 28 100
e 28 130
e 28 137
e 28 138
e 28 152
e 28 162
e 28 168
e 28 170
e 28 185
e 29 50
e 29 109
e 29 112
e 29 128
e 29 131
e 29 137
e 29 148
e 29 151
e 29 177
e 29 178
e 29 187
e 29 188
e 29 194
e 30 60
e 30 88
e 30 98
e 30 118
e 30 132
e 30 134
e 30 159
e 30 160
e 30 174
e 30 178
e 30 185
e 30 191
e 31 35
e 31 39
e 31 41
e 31 50
e 31 74
e 31 78
e 31 84
e 31 117
e 31 162
e 31 179
e 31 185
e 31 186
e 32 34
e 32 35
e 32 36
e 32 48
e 32 55
e 32 66
e 32 74
e 32 84
e 32 96
e 32 102
e 32 113
e 32 123
e 32 131
e 32 149
e 32 152
e 32 153
e 32 168
e 32 171
e 32 177
e 32 198
e 33 58
e 33 80
e 33 92
e 33 115
e 33 119
e 33 134
e 33 140
e 33 142
e 33 154
e 33 157
e 33 199
e 33 200
e 34 38
e 34 41
e 34 50
e 34 61
e 34 81
e 34 102
e 34 103
e 34 123
e 34 126
e 34 134
e 34 141
e 34 161
e 34 176
e 34 181
e 34 185
e 34 186
e 34 194
e 34 198
e 35 41
e 35 61
e 35 75
e 35 107
e 35 112
e 35 137
e 35 147
e 35 166
e 35 171
e 35 183
e 35 184
e 35 185
e 35 187
e 35 193
e 36 50
e 36 51
e 36 70
e 36 82
e 36 83
e 36 108
e 36 112
e 36 125
e 36 155
e 37 49
e 37 52
e 37 74
e 37 79
e 37 83
e 37 88
e 37 92
e 37 93
e 37 95
e 37 97
e 37 100
e 37 101
e 37 122
e 37 126
e 37 136
e 37 137
e 37 141
e 37 153
e 37 161
e 37 169
e 37 177
e 38 40
e 38 42
e 38 44
e 38 68
e 38 72
e 38 76
e 38 105
e 38 111
e 38 112
e 38 121
e 38 127
e 38 137
e 38 143
e 38 154
e 38 157
e 38 159
e 38 187
e 38 190
e 38 198
e 39 41
e 39 46
e 39 48
e 39 49
e 39 60
e 39 61
e 39 67
e 39 72
e 39 74
e 39 80
e 39 113
e 39 123
e 39 130
e 39 139
e 39 142
e 39 165
e 39 168
e 39 170
e 39 188
e 40 42
e 40 55
e 40 77
e 40 78
e 40 81
e 40 87
e 40 90
e 40 97
e 40 110
e 40 112
e 40 115
e 40 135
e 40 145
e 40 164
e 40 179
e 40 180
e 40 183
e 41 44
e 41 52
e 41 57
e 41 59
e 41 61
e 41 72
e 41 76
e 41 92
e 41 104
e 41 114
e 41 124
e 41 128
e 41 135
e 41 157
e 41 158
e 41 163
e 41 178
e 41 199
e 41 200
e 42 73
e 42 74
e 42 86
e 42 94
e 42 99
e 42 115
e 42 170
e 42 171
e 42 183
e 42 187
e 42 191
e 43 44
e 43 45
e 43 53
e 43 55
e 43 61
e 43 66
e 43 72
e 43 78
e 43 139
e 43 145
e 43 146
e 43 153
e 43 174
e 43 188
e 44 56
e 44 64
e 44 72
e 44 73
e 44 80
e 44 81
e 44 107
e 44 118
e 44 124
e 44 132
e 44 147
e 44 155
e 44 158
e 44 159
e 44 162
e 45 58
e 45 63
e 45 71
e 45 85
e 45 141
e 45 143
e 45 146
e 45 149
e 45 171
e 45 172
e 45 185
e 46 59
e 46 62
e 46 70
e 46 80
e 46 94
e 46 96
e 46 112
e 46 116
e 46 122
e 46 131
e 46 134
e 46 151
e 46 155
e 46 176
e 46 177
e 46 181
e 46 198
e 46 199
e 46 200
e 47 68
e 47 77
e 47 93
e 47 100
e 47 108
e 47 119
e 47 128
e 47 137
e 47 150
e 47 156
e 47 160
e 47 177
e 47 180
e 47 182
e 47 195
e 47 197
e 48 49
e 48 68
e 48 88
e 48 95
e 48 123
e 48 126
e 48 127
e 48 152
e 48 159
e 48 164
e 48 165
e 48 189
e 48 196
e 49 53
e 49 60
e 49 70
e 49 75
e 49 80
e 49 83
e 49 89
e 49 90
e 49 91
e 49 92
e 49 101
e 49 115
e 49 116
e 49 121
e 49 129
e 49 135
e 49 159
e 49 175
e 49 177
e 49 178
e 49 186
e 49 193
e 50 67
e 50 70
e 50 75
e 50 92
e 50 102
e 50 104
e 50 114
e 50 119
e 50 121
e 50 126
e 50 132
e 50 149
e 50 154
e 50 156
e 50 161
e 50 178
e 50 195
e 51 61
e 51 81
e 51 92
e 51 96
e 51 111
e 51 112
e 51 113
e 51 118
e 51 121
e 51 124
e 51 125
e 51 139
e 51 149
e 51 150
e 51 164
e 52 92
e 52 107
e 52 115
e 52 126
e 52 128
e 52 132
e 52 136
e 52 161
e 52 162
e 52 164
e 52 168
e 52 170
e 52 172
e 52 196
e 53 82
e 53 96
e 53 97
e 53 106
e 53 125
e 53 137
e 53 139
e 53 145
e 53 159
e 53 160
e 53 163
e 53 168
e 54 57
e 54 60
e 54 100
e 54 104
e 54 111
e 54 121
e 54 123
e 54 131
e 54 132
e 54 135
e 54 144
e 54 148
e 54 165
e 54 168
e 54 180
e 54 190
e 54 192
e 54 197
e 55 67
e 55 76
e 55 87
e 55 91
e 55 99
e 55 115
e 55 116
e 55 130
e 55 138
e 55 146
e 55 158
e 55 167
e 55 172
e 55 176
e 56 61
e 56 65
e 56 68
e 56 87
e 56 91
e 56 105
e 56 134
e 56 142
e 56 143
e 56 149
e 56 152
e 56 158
e 57 67
e 57 85
e 57 90
e 57 135
e 57 136
e 57 142
e 57 144
e 57 151
e 57 154
e 57 155
e 57 165
e 57 173
e 57 190
e 58 60
e 58 78
e 58 79
e 58 83
e 58 92
e 58 102
e 58 104
e 58 113
e 58 119
e 58 134
e 58 153
e 58 154
e 58 156
e 58 191
e 58 197
e 58 198
e 59 60
e 59 64
e 59 67
e 59 83
e 59 88
e 59 103
e 59 115
e 59 140
e 59 145
e 59 178
e 59 196
e 60 69
e 60 77
e 60 94
e 60 98
e 60 99
e 60 104
e 60 114
e 60 117
e 60 122
e 60 132
e 60 142
e 60 143
e 60 151
e 60 155
e 60 160
e 60 200
e 61 90
e 61 96
e 61 115
e 61 123
e 61 128
e 61 129
e 61 133
e 61 143
e 61 165
e 61 174
e 61 175
e 61 184
e 61 188
e 61 193
e 62 68
e 62 78
e 62 86
e 62 90
e 62 105
e 62 109
e 62 119
e 62 142
e 62 155
e 62 161
e 62 165
e 62 186
e 62 195
e 62 200
e 63 69
e 63 71
e 63 87
e 63 93
e 63 119
e 63 120
e 63 128
e 63 132
e 63 135
e 63 136
e 63 151
e 63 161
e 63 165
e 63 168
e 63 171
e 64 73
e 64 89
e 64 113
e 64 115
e 64 123
e 64 141
e 64 147
e 64 158
e 64 170
e 65 78
e 65 79
e 65 141
e 65 142
e 65 144
e 65 151
e 65 153
e 65 157
e 65 164
e 65 170
e 65 173
e 65 174
e 65 200
e 66 73
e 66 84
e 66 90
e 66 105
e 66 128
e 66 129
e 66 132
e 66 133
e 66 135
e 66 146
e 66 158
e 66 163
e 66 177
e 66 181
e 67 68
e 67 72
e 67 76
e 67 79
e 67 81
e 67 83
e 67 88
e 67 94
e 67 103
e 67 112
e 67 113
e 67 131
e 67 137
e 67 157
e 67 160
e 67 161
e 67 165
e 67 180
e 67 186
e 67 198
e 68 75
e 68 110
e 68 111
e 68 117
e 68 120
e 68 130
e 68 139
e 68 157
e 68 167
e 68 168
e 68 169
e 68 172
e 68 191
e 68 200
e 69 75
e 69 91
e 69 93
e 69 104
e 69 113
e 69 128
e 69 129
e 69 137
e 69 139
e 69 153
e 69 156
e 69 159
e 69 163
e 69 164
e 69 165
e 69 177
e 69 178
e 69 195
e 70 73
e 70 84
e 70 91
e 70 126
e 70 133
e 70 143
e 70 151
e 70 159
e 70 174
e 70 176
e 70 187
e 70 192
e 70 194
e 71 81
e 71 93
e 71 111
e 71 114
e 71 115
e 71 120
e 71 134
e 71 141
e 71 143
e 71 146
e 71 167
e 71 173
e 71 194
e 72 87
e 72 92
e 72 93
e 72 95
e 72 99
e 72 106
e 72 112
e 72 122
e 72 124
e 72 125
e 72 136
e 72 139
e 72 144
e 72 150
e 72 154
e 72 159
e 72 162
e 72 173
e 72 174
e 72 191
e 72 200
e 73 75
e 73 89
e 73 107
e 73 122
e 73 132
e 73 135
e 73 160
e 73 173
e 73 186
e 73 190
e 74 79
e 74 98
e 74 109
e 74 124
e 74 125
e 74 139
e 74 140
e 74 148
e 74 158
e 74 163
e 74 176
e 74 179
e 75 77
e 75 103
e 75 120
e 75 126
e 75 131
e 75 132
e 75 133
e 75 136
e 75 143
e 75 166
e 75 186
e 75 188
e 75 195
e 76 96
e 76 101
e 76 103
e 76 109
e 76 114
e 76 120
e 76 123
e 76 137
e 76 158
e 76 162
e 76 165
e 76 169
e 76 176
e 76 190
e 76 191
e 76 200
e 77 85
e 77 98
e 77 102
e 77 111
e 77 114
e 77 125
e 77 133
e 77 134
e 77 140
e 77 157
e 77 181
e 77 186
e 77 187
e 77 198
e 78 102
e 78 108
e 78 113
e 78 116
e 78 133
e 78 159
e 78 160
e 78 162
e 78 180
e 78 181
e 78 193
e 79 82
e 79 105
e 79 121
e 79 128
e 79 147
e 79 148
e 79 151
e 79 155
e 79 180
e 79 186
e 79 187
e 80 93
e 80 95
e 80 106
e 80 113
e 80 131
e 80 136
e 80 151
e 80 156
e 80 164
e 80 168
e 80 172
e 80 184
e 80 195
e 80 197
e 80 200
e 81 136
e 81 140
e 81 150
e 81 156
e 81 163
e 81 164
e 81 179
e 81 184
e 81 186
e 81 188
e 81 196
e 82 83
e 82 84
e 82 101
e 82 104
e 82 126
e 82 158
e 82 185
e 82 188
e 82 191
e 83 106
e 83 108
e 83 111
e 83 122
e 83 129
e 83 133
e 83 138
e 83 141
e 83 143
e 83 162
e 83 171
e 83 182
e 83 189
e 83 196
e 83 198
e 84 88
e 84 97
e 84 106
e 84 108
e 84 109
e 84 115
e 84 116
e 84 122
e 84 123
e 84 130
e 84 133
e 84 135
e 84 142
e 84 143
e 84 146
e 84 151
e 84 164
e 84 166
e 84 167
e 84 181
e 84 184
e 84 185
e 85 87
e 85 88
e 85 89
e 85 104
e 85 126
e 85 140
e 85 141
e 85 142
e 85 173
e 85 186
e 85 195
e 86 89
e 86 102
e 86 108
e 86 114
e 86 129
e 86 134
e 86 179
e 86 181
e 86 183
e 86 195
e 86 198
e 87 94
e 87 96
e 87 100
e 87 110
e 87 112
e 87 125
e 87 134
e 87 137
e 87 149
e 87 153
e 87 162
e 87 184
e 87 185
e 87 192
e 87 195
e 88 93
e 88 95
e 88 103
e 88 115
e 88 119
e 88 127
e 88 129
e 88 156
e 88 169
e 88 189
e 88 192
e 88 193
e 89 101
e 89 107
e 89 113
e 89 118
e 89 123
e 89 130
e 89 135
e 89 140
e 89 144
e 89 154
e 89 184
e 89 191
e 89 193
e 89 195
e 90 91
e 90 94
e 90 95
e 90 104
e 90 122
e 90 126
e 90 134
e 90 136
e 90 138
e 90 139
e 90 146
e 90 165
e 90 166
e 90 170
e 90 187
e 91 100
e 91 105
e 91 127
e 91 133
e 91 141
e 91 147
e 91 151
e 91 159
e 91 162
e 91 174
e 91 187
e 91 190
e 91 191
e 91 196
e 91 199
e 92 109
e 92 120
e 92 125
e 92 129
e 92 132
e 92 135
e 92 142
e 92 144
e 92 176
e 92 184
e 92 186
e 92 187
e 92 193
e 92 196
e 92 200
e 93 95
e 93 101
e 93 134
e 93 140
e 93 145
e 93 163
e 93 190
e 93 200
e 94 103
e 94 106
e 94 109
e 94 116
e 94 117
e 94 121
e 94 125
e 94 148
e 94 161
e 94 164
e 94 169
e 95 98
e 95 99
e 95 102
e 95 104
e 95 140
e 95 149
e 95 160
e 95 192
e 95 193
e 96 101
e 96 102
e 96 104
e 96 111
e 96 113
e 96 124
e 96 139
e 96 153
e 96 157
e 96 160
e 96 163
e 96 170
e 96 171
e 96 173
e 96 184
e 97 138
e 97 149
e 97 150
e 97 155
e 97 165
e 98 100
e 98 111
e 98 130
e 98 133
e 98 140
e 98 178
e 98 183
e 99 118
e 99 123
e 99 140
e 99 159
e 99 165
e 99 176
e 99 179
e 99 183
e 99 190
e 100 103
e 100 107
e 100 131
e 100 148
e 100 150
e 100 158
e 100 161
e 100 164
e 100 176
e 100 192
e 101 112
e 101 117
e 101 121
e 101 132
e 101 151
e 101 176
e 101 177
e 101 182
e 101 185
e 101 187
e 101 190
e 102 103
e 102 106
e 102 113
e 102 115
e 102 120
e 102 123
e 102 143
e 102 172
e 102 184
e 103 106
e 103 116
e 103 132
e 103 147
e 103 190
e 103 195
e 104 106
e 104 123
e 104 124
e 104 125
e 104 130
e 104 135
e 104 143
e 104 150
e 104 153
e 104 156
e 104 167
e 104 169
e 104 170
e 104 172
e 104 180
e 104 184
e 104 193
e 104 194
e 105 109
e 105 110
e 105 115
e 105 129
e 105 132
e 105 134
e 105 144
e 105 145
e 105 148
e 105 152
e 105 156
e 105 164
e 105 169
e 105 171
e 105 172
e 105 173
e 105 178
e 105 185
e 105 196
e 105 197
e 106 117
e 106 126
e 106 140
e 106 147
e 106 158
e 106 164
e 106 178
e 106 186
e 106 191
e 106 192
e 106 195
e 107 108
e 107 127
e 107 144
e 107 178
e 107 182
e 107 184
e 107 193
e 107 200
e 108 112
e 108 119
e 108 124
e 108 137
e 108 157
e 108 190
e 109 111
e 109 124
e 109 127
e 109 135
e 109 143
e 109 155
e 109 160
e 109 163
e 109 184
e 110 119
e 110 128
e 110 142
e 110 156
e 110 157
e 110 159
e 110 161
e 110 165
e 110 175
e 110 177
e 110 181
e 110 185
e 110 188
e 110 191
e 111 129
e 111 143
e 111 146
e 111 148
e 111 162
e 111 187
e 111 196
e 112 113
e 112 123
e 112 127
e 112 128
e 112 154
e 112 166
e 112 183
e 112 193
e 113 125
e 113 132
e 113 154
e 113 177
e 113 178
e 113 181
e 113 194
e 114 115
e 114 141
e 114 143
e 114 166
e 114 168
e 114 171
e 114 173
e 114 179
e 114 187
e 114 194
e 115 122
e 115 127
e 115 133
e 115 166
e 115 167
e 115 173
e 115 192
e 115 195
e 115 196
e 115 197
e 116 120
e 116 146
e 116 150
e 116 169
e 116 177
e 116 186
e 116 187
e 116 188
e 116 193
e 116 195
e 117 119
e 117 124
e 117 126
e 117 129
e 117 130
e 117 138
e 117 146
e 117 184
e 117 191
e 118 123
e 118 136
e 118 157
e 118 166
e 118 169
e 118 179
e 118 196
e 119 131
e 119 133
e 119 158
e 119 162
e 119 186
e 120 124
e 120 125
e 120 129
e 120 142
e 120 144
e 120 148
e 120 154
e 120 167
e 120 190
e 120 192
e 120 197
e 121 144
e 121 159
e 121 166
e 121 175
e 121 193
e 122 125
e 122 135
e 122 140
e 123 136
e 123 182
e 123 192
e 124 135
e 124 144
e 124 159
e 124 168
e 124 174
e 124 178
e 124 192
e 124 193
e 124 195
e 124 197
e 125 133
e 125 174
e 125 183
e 125 186
e 125 187
e 125 193
e 126 139
e 126 145
e 126 177
e 126 186
e 126 187
e 126 192
e 127 144
e 127 152
e 127 169
e 127 173
e 128 160
e 128 169
e 128 183
e 128 188
e 128 191
e 129 147
e 129 156
e 129 165
e 129 178
e 129 180
e 129 187
e 129 196
e 130 131
e 130 137
e 130 145
e 130 168
e 130 178
e 130 188
e 130 199
e 131 134
e 131 150
e 131 165
e 131 168
e 131 170
e 131 175
e 131 180
e 131 189
e 132 152
e 132 161
e 132 166
e 132 168
e 132 170
e 132 174
e 132 182
e 132 183
e 132 187
e 132 194
e 133 135
e 133 140
e 133 141
e 133 145
e 133 174
e 133 177
e 133 178
e 133 179
e 133 181
e 133 190
e 133 200
e 134 141
e 134 148
e 134 177
e 134 179
e 134 180
e 135 144
e 135 159
e 135 163
e 135 166
e 136 166
e 136 168
e 136 180
e 136 185
e 136 188
e 137 143
e 137 150
e 137 161
e 137 176
e 137 197
e 138 166
e 138 169
e 138 175
e 139 166
e 139 170
e 139 172
e 139 176
e 139 180
e 139 181
e 139 190
e 139 195
e 140 143
e 140 151
e 140 152
e 140 173
e 140 182
e 140 191
e 140 194
e 141 152
e 141 158
e 141 169
e 141 186
e 142 148
e 142 170
e 142 178
e 142 192
e 143 148
e 143 149
e 143 154
e 143 172
e 143 184
e 144 151
e 144 158
e 145 146
e 145 150
e 145 161
e 145 165
e 145 168
e 145 173
e 145 174
e 145 176
e 146 149
e 146 168
e 146 174
e 146 175
e 146 183
e 146 186
e 146 193
e 146 200
e 147 148
e 147 150
e 147 162
e 147 163
e 147 168
e 147 174
e 147 183
e 148 149
e 148 156
e 148 162
e 148 178
e 148 182
e 148 197
e 148 199
e 149 170
e 149 172
e 149 173
e 149 176
e 149 177
e 149 193
e 149 200
e 150 152
e 150 165
e 150 177
e 150 180
e 150 184
e 151 168
e 151 186
e 151 193
e 152 163
e 152 173
e 152 176
e 152 177
e 152 179
e 152 192
e 152 195
e 152 196
e 153 157
e 153 161
e 153 171
e 153 173
e 153 181
e 153 193
e 153 197
e 154 170
e 154 172
e 154 179
e 154 186
e 154 191
e 154 194
e 155 162
e 155 164
e 155 174
e 155 177
e 155 178
e 155 190
e 155 194
e 156 165
e 156 182
e 156 200
e 157 162
e 157 163
e 157 164
e 157 174
e 157 188
e 157 195
e 158 173
e 159 166
e 159 168
e 159 169
e 159 185
e 159 188
e 159 194
e 160 161
e 160 165
e 160 192
e 160 193
e 160 194
e 161 171
e 161 175
e 161 176
e 161 179
e 161 183
e 161 195
e 161 200
e 162 172
e 162 180
e 162 196
e 163 193
e 163 199
e 164 174
e 164 176
e 164 195
e 165 170
e 165 172
e 165 173
e 165 176
e 165 189
e 166 171
e 166 191
e 167 195
e 168 175
e 168 176
e 168 178
e 168 193
e 169 172
e 169 173
e 169 177
e 170 172
e 170 176
e 170 200
e 171 178
e 171 186
e 171 190
e 171 200
e 173 174
e 173 178
e 173 187
e 173 193
e 173 195
e 174 181
e 174 190
e 174 200
e 175 183
e 175 185
e 175 198
e 176 178
e 176 179
e 176 187
e 177 185
e 177 186
e 177 187
e 177 192
e 178 181
e 178 190
e 179 185
e 179 186
e 179 197
e 179 200
e 180 181
e 181 184
e 181 195
e 182 190
e 182 192
e 182 200
e 183 184
e 183 187
e 183 188
e 183 196
e 184 185
e 184 191
e 184 197
e 184 199
e 185 199
e 186 187
e 186 193
e 187 192
e 188 200
e 190 192
e 190 198
e 193 199
e 194 199
e 195 196
e 195 199
e 197 198
e 198 200
